Problem:    PLI_Scaffali
Rows:       46
Columns:    240 (225 integer, 225 binary)
Non-zeros:  705
Status:     INTEGER OPTIMAL
Objective:  z = 154 (MINimum)

   No.   Row name        Activity     Lower bound   Upper bound
------ ------------    ------------- ------------- -------------
     1 libri[1]                    1             1               
     2 libri[2]                    1             1               
     3 libri[3]                    1             1               
     4 libri[4]                    1             1               
     5 libri[5]                    1             1               
     6 libri[6]                    1             1               
     7 libri[7]                    1             1               
     8 libri[8]                    1             1               
     9 libri[9]                    1             1               
    10 libri[10]                   1             1               
    11 libri[11]                   1             1               
    12 libri[12]                   1             1               
    13 libri[13]                   1             1               
    14 libri[14]                   1             1               
    15 libri[15]                   1             1               
    16 maxLungh[1]                45                          50 
    17 maxLungh[2]                50                          50 
    18 maxLungh[3]                42                          50 
    19 maxLungh[4]                 3                          50 
    20 maxLungh[5]                 0                          50 
    21 maxLungh[6]                 0                          50 
    22 maxLungh[7]                 0                          50 
    23 maxLungh[8]                 0                          50 
    24 maxLungh[9]                 0                          50 
    25 maxLungh[10]                0                          50 
    26 maxLungh[11]                0                          50 
    27 maxLungh[12]                0                          50 
    28 maxLungh[13]                0                          50 
    29 maxLungh[14]                0                          50 
    30 maxLungh[15]                0                          50 
    31 hScaffale[1]                0            -0               
    32 hScaffale[2]                0            -0               
    33 hScaffale[3]                0            -0               
    34 hScaffale[4]                0            -0               
    35 hScaffale[5]                0            -0               
    36 hScaffale[6]                0            -0               
    37 hScaffale[7]                0            -0               
    38 hScaffale[8]                0            -0               
    39 hScaffale[9]                0            -0               
    40 hScaffale[10]
                                   0            -0               
    41 hScaffale[11]
                                   0            -0               
    42 hScaffale[12]
                                   0            -0               
    43 hScaffale[13]
                                   0            -0               
    44 hScaffale[14]
                                   0            -0               
    45 hScaffale[15]
                                   0            -0               
    46 z                         154                             

   No. Column name       Activity     Lower bound   Upper bound
------ ------------    ------------- ------------- -------------
     1 x[1,1]       *              0             0             1 
     2 x[1,2]       *              1             0             1 
     3 x[1,3]       *              0             0             1 
     4 x[1,4]       *              0             0             1 
     5 x[1,5]       *              0             0             1 
     6 x[1,6]       *              0             0             1 
     7 x[1,7]       *              0             0             1 
     8 x[1,8]       *              0             0             1 
     9 x[1,9]       *              0             0             1 
    10 x[1,10]      *              0             0             1 
    11 x[1,11]      *              0             0             1 
    12 x[1,12]      *              0             0             1 
    13 x[1,13]      *              0             0             1 
    14 x[1,14]      *              0             0             1 
    15 x[1,15]      *              0             0             1 
    16 x[2,1]       *              1             0             1 
    17 x[2,2]       *              0             0             1 
    18 x[2,3]       *              0             0             1 
    19 x[2,4]       *              0             0             1 
    20 x[2,5]       *              0             0             1 
    21 x[2,6]       *              0             0             1 
    22 x[2,7]       *              0             0             1 
    23 x[2,8]       *              0             0             1 
    24 x[2,9]       *              0             0             1 
    25 x[2,10]      *              0             0             1 
    26 x[2,11]      *              0             0             1 
    27 x[2,12]      *              0             0             1 
    28 x[2,13]      *              0             0             1 
    29 x[2,14]      *              0             0             1 
    30 x[2,15]      *              0             0             1 
    31 x[3,1]       *              1             0             1 
    32 x[3,2]       *              0             0             1 
    33 x[3,3]       *              0             0             1 
    34 x[3,4]       *              0             0             1 
    35 x[3,5]       *              0             0             1 
    36 x[3,6]       *              0             0             1 
    37 x[3,7]       *              0             0             1 
    38 x[3,8]       *              0             0             1 
    39 x[3,9]       *              0             0             1 
    40 x[3,10]      *              0             0             1 
    41 x[3,11]      *              0             0             1 
    42 x[3,12]      *              0             0             1 
    43 x[3,13]      *              0             0             1 
    44 x[3,14]      *              0             0             1 
    45 x[3,15]      *              0             0             1 
    46 x[4,1]       *              0             0             1 
    47 x[4,2]       *              1             0             1 
    48 x[4,3]       *              0             0             1 
    49 x[4,4]       *              0             0             1 
    50 x[4,5]       *              0             0             1 
    51 x[4,6]       *              0             0             1 
    52 x[4,7]       *              0             0             1 
    53 x[4,8]       *              0             0             1 
    54 x[4,9]       *              0             0             1 
    55 x[4,10]      *              0             0             1 
    56 x[4,11]      *              0             0             1 
    57 x[4,12]      *              0             0             1 
    58 x[4,13]      *              0             0             1 
    59 x[4,14]      *              0             0             1 
    60 x[4,15]      *              0             0             1 
    61 x[5,1]       *              0             0             1 
    62 x[5,2]       *              0             0             1 
    63 x[5,3]       *              1             0             1 
    64 x[5,4]       *              0             0             1 
    65 x[5,5]       *              0             0             1 
    66 x[5,6]       *              0             0             1 
    67 x[5,7]       *              0             0             1 
    68 x[5,8]       *              0             0             1 
    69 x[5,9]       *              0             0             1 
    70 x[5,10]      *              0             0             1 
    71 x[5,11]      *              0             0             1 
    72 x[5,12]      *              0             0             1 
    73 x[5,13]      *              0             0             1 
    74 x[5,14]      *              0             0             1 
    75 x[5,15]      *              0             0             1 
    76 x[6,1]       *              0             0             1 
    77 x[6,2]       *              0             0             1 
    78 x[6,3]       *              1             0             1 
    79 x[6,4]       *              0             0             1 
    80 x[6,5]       *              0             0             1 
    81 x[6,6]       *              0             0             1 
    82 x[6,7]       *              0             0             1 
    83 x[6,8]       *              0             0             1 
    84 x[6,9]       *              0             0             1 
    85 x[6,10]      *              0             0             1 
    86 x[6,11]      *              0             0             1 
    87 x[6,12]      *              0             0             1 
    88 x[6,13]      *              0             0             1 
    89 x[6,14]      *              0             0             1 
    90 x[6,15]      *              0             0             1 
    91 x[7,1]       *              0             0             1 
    92 x[7,2]       *              0             0             1 
    93 x[7,3]       *              1             0             1 
    94 x[7,4]       *              0             0             1 
    95 x[7,5]       *              0             0             1 
    96 x[7,6]       *              0             0             1 
    97 x[7,7]       *              0             0             1 
    98 x[7,8]       *              0             0             1 
    99 x[7,9]       *              0             0             1 
   100 x[7,10]      *              0             0             1 
   101 x[7,11]      *              0             0             1 
   102 x[7,12]      *              0             0             1 
   103 x[7,13]      *              0             0             1 
   104 x[7,14]      *              0             0             1 
   105 x[7,15]      *              0             0             1 
   106 x[8,1]       *              0             0             1 
   107 x[8,2]       *              1             0             1 
   108 x[8,3]       *              0             0             1 
   109 x[8,4]       *              0             0             1 
   110 x[8,5]       *              0             0             1 
   111 x[8,6]       *              0             0             1 
   112 x[8,7]       *              0             0             1 
   113 x[8,8]       *              0             0             1 
   114 x[8,9]       *              0             0             1 
   115 x[8,10]      *              0             0             1 
   116 x[8,11]      *              0             0             1 
   117 x[8,12]      *              0             0             1 
   118 x[8,13]      *              0             0             1 
   119 x[8,14]      *              0             0             1 
   120 x[8,15]      *              0             0             1 
   121 x[9,1]       *              0             0             1 
   122 x[9,2]       *              1             0             1 
   123 x[9,3]       *              0             0             1 
   124 x[9,4]       *              0             0             1 
   125 x[9,5]       *              0             0             1 
   126 x[9,6]       *              0             0             1 
   127 x[9,7]       *              0             0             1 
   128 x[9,8]       *              0             0             1 
   129 x[9,9]       *              0             0             1 
   130 x[9,10]      *              0             0             1 
   131 x[9,11]      *              0             0             1 
   132 x[9,12]      *              0             0             1 
   133 x[9,13]      *              0             0             1 
   134 x[9,14]      *              0             0             1 
   135 x[9,15]      *              0             0             1 
   136 x[10,1]      *              0             0             1 
   137 x[10,2]      *              1             0             1 
   138 x[10,3]      *              0             0             1 
   139 x[10,4]      *              0             0             1 
   140 x[10,5]      *              0             0             1 
   141 x[10,6]      *              0             0             1 
   142 x[10,7]      *              0             0             1 
   143 x[10,8]      *              0             0             1 
   144 x[10,9]      *              0             0             1 
   145 x[10,10]     *              0             0             1 
   146 x[10,11]     *              0             0             1 
   147 x[10,12]     *              0             0             1 
   148 x[10,13]     *              0             0             1 
   149 x[10,14]     *              0             0             1 
   150 x[10,15]     *              0             0             1 
   151 x[11,1]      *              0             0             1 
   152 x[11,2]      *              0             0             1 
   153 x[11,3]      *              0             0             1 
   154 x[11,4]      *              1             0             1 
   155 x[11,5]      *              0             0             1 
   156 x[11,6]      *              0             0             1 
   157 x[11,7]      *              0             0             1 
   158 x[11,8]      *              0             0             1 
   159 x[11,9]      *              0             0             1 
   160 x[11,10]     *              0             0             1 
   161 x[11,11]     *              0             0             1 
   162 x[11,12]     *              0             0             1 
   163 x[11,13]     *              0             0             1 
   164 x[11,14]     *              0             0             1 
   165 x[11,15]     *              0             0             1 
   166 x[12,1]      *              1             0             1 
   167 x[12,2]      *              0             0             1 
   168 x[12,3]      *              0             0             1 
   169 x[12,4]      *              0             0             1 
   170 x[12,5]      *              0             0             1 
   171 x[12,6]      *              0             0             1 
   172 x[12,7]      *              0             0             1 
   173 x[12,8]      *              0             0             1 
   174 x[12,9]      *              0             0             1 
   175 x[12,10]     *              0             0             1 
   176 x[12,11]     *              0             0             1 
   177 x[12,12]     *              0             0             1 
   178 x[12,13]     *              0             0             1 
   179 x[12,14]     *              0             0             1 
   180 x[12,15]     *              0             0             1 
   181 x[13,1]      *              0             0             1 
   182 x[13,2]      *              0             0             1 
   183 x[13,3]      *              1             0             1 
   184 x[13,4]      *              0             0             1 
   185 x[13,5]      *              0             0             1 
   186 x[13,6]      *              0             0             1 
   187 x[13,7]      *              0             0             1 
   188 x[13,8]      *              0             0             1 
   189 x[13,9]      *              0             0             1 
   190 x[13,10]     *              0             0             1 
   191 x[13,11]     *              0             0             1 
   192 x[13,12]     *              0             0             1 
   193 x[13,13]     *              0             0             1 
   194 x[13,14]     *              0             0             1 
   195 x[13,15]     *              0             0             1 
   196 x[14,1]      *              0             0             1 
   197 x[14,2]      *              1             0             1 
   198 x[14,3]      *              0             0             1 
   199 x[14,4]      *              0             0             1 
   200 x[14,5]      *              0             0             1 
   201 x[14,6]      *              0             0             1 
   202 x[14,7]      *              0             0             1 
   203 x[14,8]      *              0             0             1 
   204 x[14,9]      *              0             0             1 
   205 x[14,10]     *              0             0             1 
   206 x[14,11]     *              0             0             1 
   207 x[14,12]     *              0             0             1 
   208 x[14,13]     *              0             0             1 
   209 x[14,14]     *              0             0             1 
   210 x[14,15]     *              0             0             1 
   211 x[15,1]      *              0             0             1 
   212 x[15,2]      *              0             0             1 
   213 x[15,3]      *              0             0             1 
   214 x[15,4]      *              1             0             1 
   215 x[15,5]      *              0             0             1 
   216 x[15,6]      *              0             0             1 
   217 x[15,7]      *              0             0             1 
   218 x[15,8]      *              0             0             1 
   219 x[15,9]      *              0             0             1 
   220 x[15,10]     *              0             0             1 
   221 x[15,11]     *              0             0             1 
   222 x[15,12]     *              0             0             1 
   223 x[15,13]     *              0             0             1 
   224 x[15,14]     *              0             0             1 
   225 x[15,15]     *              0             0             1 
   226 y[1]                       37             0               
   227 y[2]                       59             0               
   228 y[3]                       45             0               
   229 y[4]                       13             0               
   230 y[5]                        0             0               
   231 y[6]                        0             0               
   232 y[7]                        0             0               
   233 y[8]                        0             0               
   234 y[9]                        0             0               
   235 y[10]                       0             0               
   236 y[11]                       0             0               
   237 y[12]                       0             0               
   238 y[13]                       0             0               
   239 y[14]                       0             0               
   240 y[15]                       0             0               

Integer feasibility conditions:

KKT.PE: max.abs.err = 0.00e+000 on row 0
        max.rel.err = 0.00e+000 on row 0
        High quality

KKT.PB: max.abs.err = 0.00e+000 on row 0
        max.rel.err = 0.00e+000 on row 0
        High quality

End of output
